WARNING: for repeatability, setting FPU to use double precision
============================[ Problem Statistics ]=============================
|                                                                             |
|  Number of variables:           100                                         |
|  Number of clauses:             449                                         |
|  Parse time:                   0.00 s                                       |
|  Eliminated clauses:           0.00 Mb                                      |
|  Simplification time:          0.00 s                                       |
|                                                                             |
============================[ Search Statistics ]==============================
| Conflicts |          ORIGINAL         |          LEARNT          | Progress |
|           |    Vars  Clauses Literals |    Limit  Clauses Lit/Cl |          |
===============================================================================
|       100 |      98      447     1354 |      163      100      8 |  0.010 % |
===============================================================================
restarts              : 2
conflicts             : 172            (58523 /sec)
decisions             : 224            (0.00 % random) (76216 /sec)
propagations          : 4320           (1469888 /sec)
conflict literals     : 1326           (13.56 % deleted)
Memory used           : 13.00 MB
CPU time              : 0.002939 s

SATISFIABLE
